10	6	3.4
2 3 3 4 4 7 5 9 2 2 7 3 3
2 2 2 9 4 1 1 2 2
2 2 4 2 6 3 3 1 8 2 9 3 7
2 4 1 7 3 9 4 4 6 7 4 1 1 2 1 3 9 5 5
2 4 2 6 3 7 4 9 6 4 5 1 2 2 8 3 7 4 5 5 9
2 3 3 2 4 6 5 1 5 1 6 2 7 3 2 4 9 5 9
2 6 1 1 2 5 3 1 4 4 5 2 6 9 5 1 1 2 8 3 5 4 9 5 7
2 3 2 9 5 2 6 9 1 2 5
2 2 4 8 5 7 2 4 3 6 4
2 6 1 8 2 8 3 2 4 1 5 8 6 2 5 1 8 2 4 3 1 4 9 5 2
